data;


param FN:= 5;
param D:= 100;
param U_Original:=
         1         1       -8.223477e-01
         2         1       -7.316403e-01
         3         1       -4.335210e-01
         4         1        8.160932e-01
         5         1       -7.813703e-01
         6         1        4.787236e-01
         7         1        6.673138e-01
         8         1       -1.386778e+00
         9         1        3.267604e-01
        10         1        1.053648e+00
        11         1       -1.871295e-01
        12         1        5.040403e-01
        13         1        8.225183e-01
        14         1       -2.356708e-01
        15         1       -7.837518e-01
        16         1        1.609853e+00
        17         1       -1.071351e+00
        18         1       -4.042520e-01
        19         1       -2.287985e-01
        20         1       -2.821714e-01
        21         1        1.506745e-01
        22         1        9.883395e-01
        23         1       -1.551317e-01
        24         1        8.240558e-01
        25         1       -1.506591e+00
        26         1       -4.448101e-01
        27         1       -7.129778e-01
        28         1       -9.593839e-01
        29         1       -1.324973e+00
        30         1       -9.865727e-01
        31         1        4.829998e-01
        32         1       -1.265633e+00
        33         1        9.565623e-01
        34         1        1.445113e+00
        35         1       -1.649605e+00
        36         1        8.041110e-01
        37         1       -1.005608e+00
        38         1        7.940653e-01
        39         1        3.564939e-01
        40         1        2.525786e-01
        41         1        7.783072e-01
        42         1        3.303285e-01
        43         1       -8.947158e-01
        44         1        3.667132e-01
        45         1       -2.022056e+00
        46         1       -5.916513e-01
        47         1       -4.933160e-01
        48         1       -3.281454e-02
        49         1        1.596181e-01
        50         1       -7.172881e-01
        51         1        2.355974e+00
        52         1       -1.003373e+00
        53         1       -2.193182e-02
        54         1       -1.805509e+00
        55         1       -6.086233e-03
        56         1        1.024580e-01
        57         1       -6.640845e-01
        58         1        7.344740e-01
        59         1        8.711898e-01
        60         1       -1.208582e+00
        61         1        8.682766e-01
        62         1       -6.962098e-01
        63         1        1.047676e+00
        64         1       -6.154833e-01
        65         1       -1.041474e+00
        66         1        4.951367e-01
        67         1        1.809949e+00
        68         1       -3.391945e-02
        69         1        1.532409e+00
        70         1        7.641086e-01
        71         1        7.006155e-01
        72         1        1.306047e+00
        73         1        9.602699e-01
        74         1       -6.230660e-01
        75         1       -9.716028e-01
        76         1        8.966453e-01
        77         1       -9.402214e-01
        78         1        1.563545e-01
        79         1       -1.585979e+00
        80         1       -6.820107e-01
        81         1       -4.612472e-01
        82         1       -5.401985e-01
        83         1       -3.420761e-01
        84         1       -1.529545e+00
        85         1        6.753155e-01
        86         1       -4.057527e-01
        87         1       -3.140830e-01
        88         1        1.278782e+00
        89         1        2.925194e-02
        90         1        3.205673e-01
        91         1        1.842728e+00
        92         1       -2.453437e-01
        93         1       -1.871396e-01
        94         1       -1.897424e+00
        95         1       -4.370122e-01
        96         1       -2.989872e-01
        97         1        1.076816e+00
        98         1       -4.390113e-01
        99         1        1.426285e+00
       100         1       -8.131476e-01
         1         2       -7.823022e-02
         2         2       -6.962339e-01
         3         2        7.337012e-01
         4         2       -3.376261e-01
         5         2       -5.115031e-01
         6         2        2.836430e-01
         7         2        1.297061e+00
         8         2       -1.291225e-01
         9         2        8.269802e-01
        10         2        1.003614e+00
        11         2        1.043386e+00
        12         2       -1.692864e-01
        13         2       -5.557349e-01
        14         2        1.715537e-01
        15         2       -1.587918e+00
        16         2        6.782623e-01
        17         2       -4.493619e-01
        18         2        5.007367e-02
        19         2        9.035549e-01
        20         2       -1.796139e-01
        21         2        1.614149e+00
        22         2       -4.982507e-01
        23         2       -1.186119e+00
        24         2       -4.816522e-01
        25         2       -1.001643e+00
        26         2       -1.802953e+00
        27         2       -3.183955e-01
        28         2       -1.687594e+00
        29         2        9.409520e-01
        30         2        3.222554e-01
        31         2        9.872478e-01
        32         2        3.613779e-01
        33         2        1.111623e+00
        34         2        2.276799e+00
        35         2       -2.889278e+00
        36         2       -7.178957e-01
        37         2       -1.456374e+00
        38         2        6.158373e-01
        39         2        6.781767e-01
        40         2       -1.407190e-01
        41         2       -9.344250e-01
        42         2        2.191982e-01
        43         2        4.963218e-01
        44         2        1.162371e+00
        45         2        1.428669e+00
        46         2        7.152000e-01
        47         2       -7.911452e-01
        48         2        1.910176e-01
        49         2       -8.524513e-01
        50         2        5.794405e-01
        51         2       -7.704121e-01
        52         2        3.575308e-01
        53         2       -2.008022e+00
        54         2        3.676696e-01
        55         2        1.389622e+00
        56         2       -6.835495e-02
        57         2       -8.243909e-02
        58         2       -9.104437e-01
        59         2        9.513003e-01
        60         2       -3.863613e-02
        61         2       -9.001397e-01
        62         2        1.547379e+00
        63         2        7.398444e-01
        64         2       -3.053574e-01
        65         2        1.210354e+00
        66         2       -8.196381e-01
        67         2        7.286423e-02
        68         2       -2.224034e+00
        69         2        4.575906e-01
        70         2        1.524243e-01
        71         2        3.739422e-01
        72         2        1.121122e-01
        73         2        5.134355e-02
        74         2       -1.207928e+00
        75         2       -8.166985e-01
        76         2       -1.914898e-01
        77         2       -6.778582e-02
        78         2        1.354053e+00
        79         2        2.980151e-01
        80         2        9.480464e-01
        81         2       -2.498736e+00
        82         2        3.353974e-01
        83         2        1.685585e-01
        84         2       -9.758814e-01
        85         2       -9.880255e-01
        86         2        1.808251e-01
        87         2        5.414664e-01
        88         2       -3.156613e-01
        89         2       -1.293757e+00
        90         2        1.252487e+00
        91         2       -4.949585e-01
        92         2       -1.053877e-01
        93         2       -1.715468e+00
        94         2        4.592327e-01
        95         2        6.895445e-01
        96         2        2.092789e-01
        97         2       -6.706124e-03
        98         2       -4.993139e-01
        99         2       -1.641690e+00
       100         2       -1.578189e+00
         1         3       -9.956225e-01
         2         3       -6.166169e-01
         3         3        2.583408e-01
         4         3       -1.206125e+00
         5         3       -3.012836e-01
         6         3        7.996928e-01
         7         3       -2.838840e+00
         8         3        4.057667e-01
         9         3        1.473615e+00
        10         3        1.383265e+00
        11         3       -1.628280e-01
        12         3        2.030842e-01
        13         3       -5.552450e-01
        14         3        3.162408e+00
        15         3        3.636585e-01
        16         3        7.753178e-01
        17         3       -1.769620e+00
        18         3        1.361303e+00
        19         3        9.770343e-01
        20         3        7.143884e-01
        21         3       -1.167138e-01
        22         3        6.640773e-01
        23         3        3.053706e-01
        24         3       -2.936889e-02
        25         3        1.039770e+00
        26         3       -1.318210e-01
        27         3        6.526367e-01
        28         3       -1.650987e+00
        29         3       -1.166549e+00
        30         3        8.377979e-01
        31         3       -5.533092e-01
        32         3       -1.087917e+00
        33         3        3.228237e-01
        34         3       -3.466390e-01
        35         3       -3.008310e-02
        36         3       -1.780467e+00
        37         3        6.884562e-01
        38         3       -8.036955e-01
        39         3        6.363151e-01
        40         3       -1.503687e-01
        41         3       -1.524912e+00
        42         3       -1.313517e+00
        43         3       -1.070733e-01
        44         3       -2.057214e-01
        45         3       -9.510973e-01
        46         3       -2.423003e-01
        47         3        8.887338e-01
        48         3       -1.813566e+00
        49         3        7.652483e-03
        50         3       -8.587680e-01
        51         3       -1.930724e-01
        52         3       -8.553735e-01
        53         3        2.194664e-01
        54         3        2.826414e-03
        55         3       -1.845936e-01
        56         3       -5.064364e-01
        57         3        8.133757e-01
        58         3        1.507797e+00
        59         3        1.186404e+00
        60         3        1.049189e+00
        61         3       -3.029721e-02
        62         3       -1.036957e+00
        63         3       -2.277376e-02
        64         3        1.208477e+00
        65         3        3.832290e-01
        66         3        2.960105e-02
        67         3       -5.476544e-01
        68         3        3.721428e-01
        69         3       -1.454739e+00
        70         3        8.188908e-01
        71         3        9.235989e-01
        72         3       -3.139558e-01
        73         3       -1.067751e+00
        74         3        3.604411e-01
        75         3       -4.088022e-02
        76         3       -1.267863e+00
        77         3       -2.477519e-01
        78         3       -2.481407e-01
        79         3        8.146877e-01
        80         3        1.011403e+00
        81         3        9.502109e-04
        82         3        1.253292e-01
        83         3        1.072547e+00
        84         3        1.830181e+00
        85         3       -3.432263e-01
        86         3       -5.510632e-01
        87         3        6.130327e-01
        88         3        8.431709e-01
        89         3       -7.253792e-01
        90         3        9.195385e-01
        91         3        2.149080e+00
        92         3       -1.016937e+00
        93         3        9.288066e-01
        94         3        1.494002e+00
        95         3        5.678269e-01
        96         3        3.527262e-01
        97         3        1.168458e+00
        98         3       -2.968059e-01
        99         3       -7.056663e-02
       100         3       -1.245973e+00
         1         4       -2.365685e+00
         2         4       -6.111390e-01
         3         4        8.581077e-01
         4         4        9.821719e-01
         5         4        1.503782e-01
         6         4        9.494257e-01
         7         4        9.448841e-01
         8         4       -1.986783e-01
         9         4       -1.992479e+00
        10         4        3.370683e-01
        11         4        5.045300e-01
        12         4       -2.104391e-01
        13         4        5.117611e-01
        14         4       -1.689676e+00
        15         4        9.661211e-01
        16         4        7.933877e-01
        17         4       -2.316665e-02
        18         4       -1.061366e-01
        19         4       -2.453427e-01
        20         4       -1.254102e+00
        21         4        2.590175e+00
        22         4        7.420958e-01
        23         4        4.205735e-01
        24         4       -2.633527e-01
        25         4       -3.185738e-02
        26         4        6.299854e-01
        27         4       -1.664333e-01
        28         4        5.037729e-01
        29         4       -7.710343e-01
        30         4        1.314941e+00
        31         4       -1.290201e+00
        32         4       -1.075913e-01
        33         4        6.844854e-01
        34         4       -2.292327e-01
        35         4        7.442010e-01
        36         4       -5.578848e-01
        37         4       -2.001915e-01
        38         4       -2.965863e+00
        39         4       -3.553691e-01
        40         4        1.649911e+00
        41         4       -1.058357e+00
        42         4       -4.154601e-01
        43         4       -6.227952e-01
        44         4        1.618111e+00
        45         4        9.866581e-01
        46         4        3.314899e-01
        47         4       -7.264877e-01
        48         4        1.202190e+00
        49         4       -3.275329e-01
        50         4        3.951834e-03
        51         4       -7.275865e-01
        52         4       -1.347248e-01
        53         4        3.975981e-01
        54         4        7.265593e-01
        55         4        4.237023e-01
        56         4        2.263911e-01
        57         4        1.400024e+00
        58         4        8.108463e-01
        59         4        1.212099e+00
        60         4       -3.899492e-01
        61         4       -1.521864e-01
        62         4       -1.786779e-01
        63         4        1.789239e+00
        64         4       -6.881302e-01
        65         4        3.284034e-01
        66         4       -8.834227e-02
        67         4       -1.407854e+00
        68         4        7.237821e-02
        69         4       -6.028293e-01
        70         4        1.336739e+00
        71         4        1.225268e+00
        72         4        4.024854e-01
        73         4       -9.483234e-01
        74         4        1.929198e+00
        75         4       -1.196938e+00
        76         4       -1.662542e+00
        77         4       -1.081193e+00
        78         4       -1.322118e+00
        79         4       -1.566298e-01
        80         4       -3.357411e-01
        81         4       -4.786936e-02
        82         4       -4.956925e-01
        83         4        1.046622e+00
        84         4       -2.881859e-01
        85         4        1.549563e+00
        86         4       -3.866932e-01
        87         4       -2.359356e+00
        88         4        1.099990e+00
        89         4        5.518628e-01
        90         4       -2.664298e+00
        91         4        6.391272e-01
        92         4       -2.250283e-01
        93         4       -1.348618e+00
        94         4       -8.953565e-01
        95         4       -4.364325e-01
        96         4        4.075491e-01
        97         4       -1.217396e+00
        98         4       -1.187388e+00
        99         4        1.052867e+00
       100         4        2.628420e+00
         1         5       -5.728436e-01
         2         5       -9.308739e-01
         3         5       -7.603364e-01
         4         5       -9.250726e-01
         5         5       -1.606774e+00
         6         5       -8.170850e-02
         7         5       -2.408002e+00
         8         5       -7.579047e-01
         9         5        6.963850e-01
        10         5        2.778606e-01
        11         5        6.658980e-02
        12         5       -3.564568e-01
        13         5       -6.716125e-01
        14         5        3.061403e-01
        15         5        3.918030e-01
        16         5        3.216140e-01
        17         5        5.904077e-01
        18         5       -3.505093e-01
        19         5        9.130729e-01
        20         5       -4.818299e-01
        21         5        7.243616e-01
        22         5        9.490408e-01
        23         5       -1.027127e+00
        24         5       -4.861795e-02
        25         5        7.046047e-01
        26         5       -3.428524e-01
        27         5       -3.701393e-01
        28         5       -5.688558e-01
        29         5        3.880296e-01
        30         5        8.483636e-02
        31         5        2.811726e-01
        32         5        4.303975e-01
        33         5        1.554072e-02
        34         5        1.910439e-01
        35         5        1.276166e+00
        36         5        7.207836e-01
        37         5        4.085350e-01
        38         5       -3.435832e-01
        39         5        1.903722e+00
        40         5       -6.556325e-01
        41         5        2.718495e-01
        42         5        2.516356e-01
        43         5        2.146949e+00
        44         5        5.259916e-01
        45         5       -1.420482e+00
        46         5        7.790652e-01
        47         5        2.328475e+00
        48         5       -5.314990e-01
        49         5       -3.065894e-01
        50         5        1.924559e+00
        51         5        6.130628e-01
        52         5       -8.237761e-01
        53         5        2.180740e-01
        54         5       -4.582917e-01
        55         5       -1.323358e-01
        56         5        5.630273e-01
        57         5        1.092368e+00
        58         5       -1.364168e+00
        59         5       -2.329862e-01
        60         5       -5.050920e-02
        61         5        1.663152e-01
        62         5        8.543167e-01
        63         5        1.930048e-01
        64         5       -1.519538e+00
        65         5       -1.598439e-01
        66         5        2.310750e+00
        67         5        4.055474e-01
        68         5       -1.283579e-01
        69         5       -3.762078e-01
        70         5        5.666291e-01
        71         5       -1.117905e-01
        72         5       -7.010496e-01
        73         5       -1.410680e+00
        74         5        6.082983e-02
        75         5       -4.099778e-01
        76         5       -1.087440e+00
        77         5        1.142792e+00
        78         5        4.270424e-01
        79         5        1.027525e+00
        80         5        3.991021e-01
        81         5        1.892746e+00
        82         5       -6.349991e-01
        83         5        3.202104e-01
        84         5       -1.174829e+00
        85         5       -1.443382e-01
        86         5       -1.540067e+00
        87         5       -1.409374e+00
        88         5        1.009635e-01
        89         5        2.936514e+00
        90         5       -2.679453e+00
        91         5        4.377533e-01
        92         5       -5.923253e-01
        93         5        1.336668e+00
        94         5        1.032989e+00
        95         5        6.525002e-01
        96         5        6.491983e-01
        97         5       -3.231924e-02
        98         5       -5.027236e-01
        99         5       -4.898159e-01
       100         5       -1.293418e+00
;
param X_Original:=
    1       -1.635297e-01
    2       -5.965264e-01
    3        9.042021e-01
    4        4.615327e-01
    5       -1.127276e-01
    6       -8.844369e-01
    7       -1.758528e-01
    8       -9.712955e-01
    9        1.221997e+00
   10        6.901246e-01
   11       -6.034120e-01
   12        6.809566e-01
   13       -1.102022e+00
   14       -3.891730e-01
   15        1.303420e+00
   16       -7.384479e-01
   17        6.330898e-01
   18        1.303054e+00
   19        2.249993e+00
   20       -4.682025e-01
   21       -3.506833e-01
   22        2.397296e-01
   23        5.373092e-01
   24       -2.212599e-01
   25       -2.283500e-01
   26        1.014211e+00
   27        1.902576e-01
   28       -2.023168e+00
   29        3.168467e+00
   30       -5.776821e-01
   31       -1.476546e+00
   32       -6.329352e-01
   33        2.175271e-01
   34        7.262789e-01
   35        3.498009e-01
   36       -2.906916e-01
   37       -2.401089e-01
   38       -1.426458e+00
   39       -3.541795e-01
   40        7.001594e-01
   41        7.167873e-01
   42       -9.663144e-01
   43       -5.183853e-01
   44       -1.176595e-02
   45        1.419013e-01
   46       -9.197957e-01
   47        1.287068e+00
   48       -1.663034e+00
   49        7.835317e-02
   50       -2.491524e+00
   51       -6.768519e-01
   52       -9.011650e-01
   53        7.896364e-01
   54        4.743406e-01
   55        6.496836e-01
   56       -1.610633e+00
   57        1.706413e+00
   58        8.322835e-01
   59        1.558803e-01
   60        2.828963e-01
   61       -2.255771e+00
   62       -2.041528e-01
   63        9.871758e-01
   64       -5.437650e-02
   65       -1.349677e+00
   66       -7.450740e-01
   67       -9.632098e-02
   68        1.321162e+00
   69       -1.609887e+00
   70        1.746127e-02
   71        5.830819e-01
   72       -7.295150e-01
   73       -7.081701e-01
   74        9.144833e-01
   75       -3.378908e-01
   76       -4.928768e-01
   77        3.914760e-01
   78        1.817325e+00
   79        1.951113e-01
   80        1.554493e+00
   81        1.313993e-01
   82       -8.494979e-01
   83       -2.230005e+00
   84        4.949945e-01
   85        6.995151e-01
   86       -9.237816e-01
   87        4.314448e-01
   88        3.910434e-01
   89       -5.506078e-01
   90        2.154587e-01
   91       -8.272096e-01
   92        1.403921e+00
   93        1.032655e-01
   94        4.406831e-01
   95       -8.911598e-01
   96        2.748007e-01
   97       -1.470466e+00
   98        8.345744e-01
   99        1.323805e+00
  100       -2.084350e+00
;
param outliervec_original :=
    1    0
    2    0
    3    1
    4    1
    5    1
    6    1
    7    1
    8    1
    9    1
   10    1
   11    1
   12    1
   13    1
   14    1
   15    1
   16    1
   17    1
   18    1
   19    1
   20    1
   21    1
   22    1
   23    1
   24    1
   25    1
   26    1
   27    0
   28    1
   29    1
   30    1
   31    1
   32    0
   33    1
   34    1
   35    1
   36    1
   37    1
   38    1
   39    1
   40    1
   41    1
   42    1
   43    1
   44    1
   45    1
   46    1
   47    1
   48    0
   49    0
   50    1
   51    1
   52    1
   53    1
   54    1
   55    1
   56    1
   57    1
   58    1
   59    1
   60    1
   61    1
   62    1
   63    1
   64    1
   65    1
   66    1
   67    1
   68    1
   69    1
   70    1
   71    1
   72    1
   73    1
   74    1
   75    1
   76    1
   77    1
   78    1
   79    1
   80    1
   81    1
   82    1
   83    1
   84    0
   85    1
   86    1
   87    0
   88    0
   89    1
   90    0
   91    1
   92    1
   93    1
   94    1
   95    1
   96    0
   97    1
   98    1
   99    1
  100    0
;
param d:= 56;
param r:=5;
param p:=0.880000;
param M:=1000;
param U:=
         1         1       -7.316403e-01
         2         1       -4.335210e-01
         3         1       -7.813703e-01
         4         1        3.267604e-01
         5         1        1.053648e+00
         6         1       -1.871295e-01
         7         1        5.040403e-01
         8         1       -7.837518e-01
         9         1       -4.042520e-01
        10         1        1.506745e-01
        11         1       -1.551317e-01
        12         1        8.240558e-01
        13         1       -4.448101e-01
        14         1       -7.129778e-01
        15         1       -9.593839e-01
        16         1        4.829998e-01
        17         1        9.565623e-01
        18         1       -1.649605e+00
        19         1        7.940653e-01
        20         1        3.564939e-01
        21         1        2.525786e-01
        22         1        3.303285e-01
        23         1       -8.947158e-01
        24         1        3.667132e-01
        25         1       -5.916513e-01
        26         1       -4.933160e-01
        27         1       -3.281454e-02
        28         1        1.596181e-01
        29         1       -7.172881e-01
        30         1        2.355974e+00
        31         1       -1.003373e+00
        32         1       -2.193182e-02
        33         1       -1.805509e+00
        34         1        1.024580e-01
        35         1       -6.640845e-01
        36         1       -1.208582e+00
        37         1        1.047676e+00
        38         1        4.951367e-01
        39         1       -3.391945e-02
        40         1        1.532409e+00
        41         1        1.306047e+00
        42         1        9.602699e-01
        43         1       -6.230660e-01
        44         1       -9.716028e-01
        45         1       -1.585979e+00
        46         1       -6.820107e-01
        47         1       -4.612472e-01
        48         1        6.753155e-01
        49         1       -4.057527e-01
        50         1       -3.140830e-01
        51         1        2.925194e-02
        52         1        3.205673e-01
        53         1       -1.871396e-01
        54         1       -1.897424e+00
        55         1       -2.989872e-01
        56         1        1.426285e+00
         1         2       -6.962339e-01
         2         2        7.337012e-01
         3         2       -5.115031e-01
         4         2        8.269802e-01
         5         2        1.003614e+00
         6         2        1.043386e+00
         7         2       -1.692864e-01
         8         2       -1.587918e+00
         9         2        5.007367e-02
        10         2        1.614149e+00
        11         2       -1.186119e+00
        12         2       -4.816522e-01
        13         2       -1.802953e+00
        14         2       -3.183955e-01
        15         2       -1.687594e+00
        16         2        9.872478e-01
        17         2        1.111623e+00
        18         2       -2.889278e+00
        19         2        6.158373e-01
        20         2        6.781767e-01
        21         2       -1.407190e-01
        22         2        2.191982e-01
        23         2        4.963218e-01
        24         2        1.162371e+00
        25         2        7.152000e-01
        26         2       -7.911452e-01
        27         2        1.910176e-01
        28         2       -8.524513e-01
        29         2        5.794405e-01
        30         2       -7.704121e-01
        31         2        3.575308e-01
        32         2       -2.008022e+00
        33         2        3.676696e-01
        34         2       -6.835495e-02
        35         2       -8.243909e-02
        36         2       -3.863613e-02
        37         2        7.398444e-01
        38         2       -8.196381e-01
        39         2       -2.224034e+00
        40         2        4.575906e-01
        41         2        1.121122e-01
        42         2        5.134355e-02
        43         2       -1.207928e+00
        44         2       -8.166985e-01
        45         2        2.980151e-01
        46         2        9.480464e-01
        47         2       -2.498736e+00
        48         2       -9.880255e-01
        49         2        1.808251e-01
        50         2        5.414664e-01
        51         2       -1.293757e+00
        52         2        1.252487e+00
        53         2       -1.715468e+00
        54         2        4.592327e-01
        55         2        2.092789e-01
        56         2       -1.641690e+00
         1         3       -6.166169e-01
         2         3        2.583408e-01
         3         3       -3.012836e-01
         4         3        1.473615e+00
         5         3        1.383265e+00
         6         3       -1.628280e-01
         7         3        2.030842e-01
         8         3        3.636585e-01
         9         3        1.361303e+00
        10         3       -1.167138e-01
        11         3        3.053706e-01
        12         3       -2.936889e-02
        13         3       -1.318210e-01
        14         3        6.526367e-01
        15         3       -1.650987e+00
        16         3       -5.533092e-01
        17         3        3.228237e-01
        18         3       -3.008310e-02
        19         3       -8.036955e-01
        20         3        6.363151e-01
        21         3       -1.503687e-01
        22         3       -1.313517e+00
        23         3       -1.070733e-01
        24         3       -2.057214e-01
        25         3       -2.423003e-01
        26         3        8.887338e-01
        27         3       -1.813566e+00
        28         3        7.652483e-03
        29         3       -8.587680e-01
        30         3       -1.930724e-01
        31         3       -8.553735e-01
        32         3        2.194664e-01
        33         3        2.826414e-03
        34         3       -5.064364e-01
        35         3        8.133757e-01
        36         3        1.049189e+00
        37         3       -2.277376e-02
        38         3        2.960105e-02
        39         3        3.721428e-01
        40         3       -1.454739e+00
        41         3       -3.139558e-01
        42         3       -1.067751e+00
        43         3        3.604411e-01
        44         3       -4.088022e-02
        45         3        8.146877e-01
        46         3        1.011403e+00
        47         3        9.502109e-04
        48         3       -3.432263e-01
        49         3       -5.510632e-01
        50         3        6.130327e-01
        51         3       -7.253792e-01
        52         3        9.195385e-01
        53         3        9.288066e-01
        54         3        1.494002e+00
        55         3        3.527262e-01
        56         3       -7.056663e-02
         1         4       -6.111390e-01
         2         4        8.581077e-01
         3         4        1.503782e-01
         4         4       -1.992479e+00
         5         4        3.370683e-01
         6         4        5.045300e-01
         7         4       -2.104391e-01
         8         4        9.661211e-01
         9         4       -1.061366e-01
        10         4        2.590175e+00
        11         4        4.205735e-01
        12         4       -2.633527e-01
        13         4        6.299854e-01
        14         4       -1.664333e-01
        15         4        5.037729e-01
        16         4       -1.290201e+00
        17         4        6.844854e-01
        18         4        7.442010e-01
        19         4       -2.965863e+00
        20         4       -3.553691e-01
        21         4        1.649911e+00
        22         4       -4.154601e-01
        23         4       -6.227952e-01
        24         4        1.618111e+00
        25         4        3.314899e-01
        26         4       -7.264877e-01
        27         4        1.202190e+00
        28         4       -3.275329e-01
        29         4        3.951834e-03
        30         4       -7.275865e-01
        31         4       -1.347248e-01
        32         4        3.975981e-01
        33         4        7.265593e-01
        34         4        2.263911e-01
        35         4        1.400024e+00
        36         4       -3.899492e-01
        37         4        1.789239e+00
        38         4       -8.834227e-02
        39         4        7.237821e-02
        40         4       -6.028293e-01
        41         4        4.024854e-01
        42         4       -9.483234e-01
        43         4        1.929198e+00
        44         4       -1.196938e+00
        45         4       -1.566298e-01
        46         4       -3.357411e-01
        47         4       -4.786936e-02
        48         4        1.549563e+00
        49         4       -3.866932e-01
        50         4       -2.359356e+00
        51         4        5.518628e-01
        52         4       -2.664298e+00
        53         4       -1.348618e+00
        54         4       -8.953565e-01
        55         4        4.075491e-01
        56         4        1.052867e+00
         1         5       -9.308739e-01
         2         5       -7.603364e-01
         3         5       -1.606774e+00
         4         5        6.963850e-01
         5         5        2.778606e-01
         6         5        6.658980e-02
         7         5       -3.564568e-01
         8         5        3.918030e-01
         9         5       -3.505093e-01
        10         5        7.243616e-01
        11         5       -1.027127e+00
        12         5       -4.861795e-02
        13         5       -3.428524e-01
        14         5       -3.701393e-01
        15         5       -5.688558e-01
        16         5        2.811726e-01
        17         5        1.554072e-02
        18         5        1.276166e+00
        19         5       -3.435832e-01
        20         5        1.903722e+00
        21         5       -6.556325e-01
        22         5        2.516356e-01
        23         5        2.146949e+00
        24         5        5.259916e-01
        25         5        7.790652e-01
        26         5        2.328475e+00
        27         5       -5.314990e-01
        28         5       -3.065894e-01
        29         5        1.924559e+00
        30         5        6.130628e-01
        31         5       -8.237761e-01
        32         5        2.180740e-01
        33         5       -4.582917e-01
        34         5        5.630273e-01
        35         5        1.092368e+00
        36         5       -5.050920e-02
        37         5        1.930048e-01
        38         5        2.310750e+00
        39         5       -1.283579e-01
        40         5       -3.762078e-01
        41         5       -7.010496e-01
        42         5       -1.410680e+00
        43         5        6.082983e-02
        44         5       -4.099778e-01
        45         5        1.027525e+00
        46         5        3.991021e-01
        47         5        1.892746e+00
        48         5       -1.443382e-01
        49         5       -1.540067e+00
        50         5       -1.409374e+00
        51         5        2.936514e+00
        52         5       -2.679453e+00
        53         5        1.336668e+00
        54         5        1.032989e+00
        55         5        6.491983e-01
        56         5       -4.898159e-01
;

param theta:=
    1        1.536617e-01
    2       -8.371458e-02
    3        5.704623e-01
    4       -3.220879e-01
    5        4.147497e-01
;
param X_true:=
    1       -5.965264e-01
    2       -5.720148e-01
    3       -9.620777e-01
    4        1.753920e+00
    5        8.738864e-01
    6       -3.446655e-01
    7        1.271757e-01
    8        7.274376e-02
    9        5.995067e-01
   10       -7.125086e-01
   11       -3.137375e-01
   12        2.158604e-01
   13       -3.381943e-01
   14        1.902576e-01
   15       -1.348420e+00
   16        2.085723e-01
   17        2.367971e-02
   18        2.605978e-01
   19        4.253729e-01
   20        1.263962e+00
   21       -8.374613e-01
   22       -4.787387e-01
   23        8.498915e-01
   24       -4.629924e-01
   25       -7.329369e-02
   26        1.697173e+00
   27       -1.663034e+00
   28        7.835317e-02
   29        1.487559e-01
   30        8.053306e-01
   31       -9.686726e-01
   32        2.521740e-01
   33       -7.308480e-01
   34       -1.086628e-01
   35        3.700666e-01
   36        5.215341e-01
   37       -4.101103e-01
   38        1.147723e+00
   39        3.175052e-01
   40       -5.941525e-01
   41       -4.078597e-01
   42       -7.451131e-01
   43       -3.852549e-01
   44        1.103208e-01
   45        6.737306e-01
   46        6.654270e-01
   47        9.384004e-01
   48       -5.685704e-01
   49       -9.074097e-01
   50        4.314448e-01
   51        7.394793e-01
   52        2.154587e-01
   53        1.632222e+00
   54        1.238516e+00
   55        2.748007e-01
   56       -2.247705e-01
;
param X:=
    1       -5.965264e-01
    2        9.042021e-01
    3       -1.127276e-01
    4        1.221997e+00
    5        6.901246e-01
    6       -6.034120e-01
    7        6.809566e-01
    8        1.303420e+00
    9        1.303054e+00
   10       -3.506833e-01
   11        5.373092e-01
   12       -2.212599e-01
   13        1.014211e+00
   14        1.902576e-01
   15       -2.023168e+00
   16       -1.476546e+00
   17        2.175271e-01
   18        3.498009e-01
   19       -1.426458e+00
   20       -3.541795e-01
   21        7.001594e-01
   22       -9.663144e-01
   23       -5.183853e-01
   24       -1.176595e-02
   25       -9.197957e-01
   26        1.287068e+00
   27       -1.663034e+00
   28        7.835317e-02
   29       -2.491524e+00
   30       -6.768519e-01
   31       -9.011650e-01
   32        7.896364e-01
   33        4.743406e-01
   34       -1.610633e+00
   35        1.706413e+00
   36        2.828963e-01
   37        9.871758e-01
   38       -7.450740e-01
   39        1.321162e+00
   40       -1.609887e+00
   41       -7.295150e-01
   42       -7.081701e-01
   43        9.144833e-01
   44       -3.378908e-01
   45        1.951113e-01
   46        1.554493e+00
   47        1.313993e-01
   48        6.995151e-01
   49       -9.237816e-01
   50        4.314448e-01
   51       -5.506078e-01
   52        2.154587e-01
   53        1.032655e-01
   54        4.406831e-01
   55        2.748007e-01
   56        1.323805e+00
;
param outliervec:=
    1    0
    2    1
    3    1
    4    1
    5    1
    6    1
    7    1
    8    1
    9    1
   10    1
   11    1
   12    1
   13    1
   14    0
   15    1
   16    1
   17    1
   18    1
   19    1
   20    1
   21    1
   22    1
   23    1
   24    1
   25    1
   26    1
   27    0
   28    0
   29    1
   30    1
   31    1
   32    1
   33    1
   34    1
   35    1
   36    1
   37    1
   38    1
   39    1
   40    1
   41    1
   42    1
   43    1
   44    1
   45    1
   46    1
   47    1
   48    1
   49    1
   50    0
   51    1
   52    0
   53    1
   54    1
   55    0
   56    1
; 
param greedy_time :=         2.137037e-01
;